588834
588834
579881
579881
579881
575679
575679
571027
571027
553942
553942
553942
553942
553942
552544
551927
546882
537469
537469
537182
524979
524979
524979
519185
505417
505417
500745
500745
498137
489305
480297
480297
480297
480297
480297
480297
480297
479560
479560
479560
478970
478970
475729
475357
471467
471467
471467
469610
469610
469610
469610
461543
461543
461543
461543
461543
460956
460956
460956
460956
460638
457161
457161
457161
457161
453766
453766
453766
449397
449397
439936
439936
439936
439936
439936
439936
439936
439936
439936
439936
439936
439936
439936
439936
439936
439936
439936
437791
437791
437791
437791
437791
437791
437791
437791
437791
437791
437791
435819
433502
